(set-info :smt-lib-version 2.6)
(set-logic QF_NIA)
(set-info :source |
Generated by: Cristina Borralleras, Daniel Larraz, Albert Oliveras, Enric Rodriguez-Carbonell, Albert Rubio
Generated on: 2017-04-27
Generator: VeryMax
Application: Termination proving
Target solver: barcelogic
|)
(set-info :license "https://creativecommons.org/licenses/by/4.0/")
(set-info :category "industrial")
(set-info :status sat)
(declare-fun Nl3arg11 () Int)
(declare-fun Nl3arg21 () Int)
(declare-fun Nl3arg31 () Int)
(declare-fun Nl3arg12 () Int)
(declare-fun Nl3arg22 () Int)
(declare-fun Nl3arg32 () Int)
(declare-fun Nl3arg13 () Int)
(declare-fun Nl3arg23 () Int)
(declare-fun Nl3arg33 () Int)
(declare-fun lam0n0 () Int)
(declare-fun lam0n1 () Int)
(declare-fun lam0n3 () Int)
(declare-fun lam0n4 () Int)
(declare-fun lam0n5 () Int)
(declare-fun Nl3CT1 () Int)
(declare-fun Nl3CT2 () Int)
(declare-fun Nl3CT3 () Int)
(declare-fun lam0n2 () Int)
(declare-fun lam1n0 () Int)
(declare-fun lam1n1 () Int)
(declare-fun lam1n3 () Int)
(declare-fun lam1n4 () Int)
(declare-fun lam1n5 () Int)
(declare-fun lam1n2 () Int)
(declare-fun lam2n0 () Int)
(declare-fun lam2n1 () Int)
(declare-fun lam2n3 () Int)
(declare-fun lam2n4 () Int)
(declare-fun lam2n5 () Int)
(declare-fun lam2n2 () Int)
(declare-fun lam3n0 () Int)
(declare-fun lam3n1 () Int)
(declare-fun lam3n3 () Int)
(declare-fun lam3n4 () Int)
(declare-fun lam3n5 () Int)
(declare-fun lam3n2 () Int)
(declare-fun lam4n0 () Int)
(declare-fun lam4n2 () Int)
(declare-fun lam4n3 () Int)
(declare-fun lam4n4 () Int)
(declare-fun lam4n1 () Int)
(declare-fun lam5n0 () Int)
(declare-fun lam5n2 () Int)
(declare-fun lam5n3 () Int)
(declare-fun lam5n4 () Int)
(declare-fun lam5n1 () Int)
(declare-fun lam6n0 () Int)
(declare-fun lam6n2 () Int)
(declare-fun lam6n3 () Int)
(declare-fun lam6n4 () Int)
(declare-fun lam6n1 () Int)
(declare-fun lam7n0 () Int)
(declare-fun lam7n2 () Int)
(declare-fun lam7n3 () Int)
(declare-fun lam7n4 () Int)
(declare-fun lam7n1 () Int)
(declare-fun lam8n0 () Int)
(declare-fun lam8n1 () Int)
(declare-fun lam8n2 () Int)
(declare-fun lam8n3 () Int)
(declare-fun lam8n4 () Int)
(declare-fun lam8n5 () Int)
(declare-fun lam9n0 () Int)
(declare-fun lam9n1 () Int)
(declare-fun lam9n2 () Int)
(declare-fun lam9n3 () Int)
(declare-fun lam9n4 () Int)
(declare-fun lam9n5 () Int)
(declare-fun lam10n0 () Int)
(declare-fun lam10n1 () Int)
(declare-fun lam10n2 () Int)
(declare-fun lam10n3 () Int)
(declare-fun lam10n4 () Int)
(declare-fun lam10n5 () Int)
(declare-fun undef14 () Int)
(declare-fun undef13 () Int)
(declare-fun arg1 () Int)
(declare-fun arg2 () Int)
(declare-fun arg3 () Int)
(declare-fun FV_arg1_2 () Int)
(declare-fun FV_arg2_2 () Int)
(declare-fun FV_arg3_2 () Int)
(declare-fun lam11n0 () Int)
(declare-fun lam11n1 () Int)
(declare-fun lam11n2 () Int)
(declare-fun lam11n3 () Int)
(declare-fun lam11n4 () Int)
(declare-fun lam12n0 () Int)
(declare-fun lam12n1 () Int)
(declare-fun lam12n2 () Int)
(declare-fun lam12n3 () Int)
(declare-fun lam12n4 () Int)
(declare-fun lam13n0 () Int)
(declare-fun lam13n1 () Int)
(declare-fun lam13n2 () Int)
(declare-fun lam13n3 () Int)
(declare-fun lam13n4 () Int)
(declare-fun lam13n5 () Int)
(declare-fun lam14n0 () Int)
(declare-fun lam14n1 () Int)
(declare-fun lam14n2 () Int)
(declare-fun lam14n3 () Int)
(declare-fun lam14n4 () Int)
(declare-fun lam14n5 () Int)
(declare-fun lam15n0 () Int)
(declare-fun lam15n1 () Int)
(declare-fun lam15n2 () Int)
(declare-fun lam15n3 () Int)
(declare-fun lam15n4 () Int)
(declare-fun lam15n5 () Int)
(declare-fun lam16n0 () Int)
(declare-fun lam16n1 () Int)
(declare-fun lam16n2 () Int)
(declare-fun lam16n3 () Int)
(declare-fun lam16n4 () Int)
(declare-fun lam16n5 () Int)
(declare-fun FV_arg2_3 () Int)
(declare-fun FV_arg1_3 () Int)
(declare-fun FV_arg3_3 () Int)
(assert ( and ( <= ( - 1 ) Nl3arg11 ) ( <= Nl3arg11 1 ) ( <= ( - 1 ) Nl3arg21 ) ( <= Nl3arg21 1 ) ( <= ( - 1 ) Nl3arg31 ) ( <= Nl3arg31 1 ) ( <= ( - 1 ) Nl3arg12 ) ( <= Nl3arg12 1 ) ( <= ( - 1 ) Nl3arg22 ) ( <= Nl3arg22 1 ) ( <= ( - 1 ) Nl3arg32 ) ( <= Nl3arg32 1 ) ( <= ( - 1 ) Nl3arg13 ) ( <= Nl3arg13 1 ) ( <= ( - 1 ) Nl3arg23 ) ( <= Nl3arg23 1 ) ( <= ( - 1 ) Nl3arg33 ) ( <= Nl3arg33 1 ) ))
(assert ( or ( and ( >= lam0n0 0 ) ( >= lam0n1 0 ) ( >= lam0n3 0 ) ( >= lam0n4 0 ) ( >= lam0n5 0 ) ( > ( + ( * ( - 5 ) lam0n0 ) ( * ( - 8 ) lam0n1 ) ( * Nl3CT1 lam0n3 ) ( * Nl3CT2 lam0n4 ) ( * Nl3CT3 lam0n5 ) ( - 1 ) ) 0 ) ( = ( + ( * 1 lam0n1 ) ( * Nl3arg11 lam0n3 ) ( * Nl3arg12 lam0n4 ) ( * Nl3arg13 lam0n5 ) ) 0 ) ( = ( + ( * 1 lam0n0 ) ( * 1 lam0n2 ) ( * Nl3arg21 lam0n3 ) ( * Nl3arg22 lam0n4 ) ( * Nl3arg23 lam0n5 ) ) 0 ) ( = ( + ( * ( - 1 ) lam0n2 ) ( * Nl3arg31 lam0n3 ) ( * Nl3arg32 lam0n4 ) ( * Nl3arg33 lam0n5 ) ) 0 ) ) ( and ( >= lam1n0 0 ) ( >= lam1n1 0 ) ( >= lam1n3 0 ) ( >= lam1n4 0 ) ( >= lam1n5 0 ) ( > ( + ( * ( - 5 ) lam1n0 ) ( * ( - 8 ) lam1n1 ) ( * Nl3CT1 lam1n3 ) ( * Nl3CT2 lam1n4 ) ( * Nl3CT3 lam1n5 ) ( - 1 ( + ( + ( + Nl3CT1 ( * Nl3arg11 1 ) ) ( * Nl3arg21 1 ) ) ( * Nl3arg31 1 ) ) ) ) 0 ) ( = ( + ( * 1 lam1n1 ) ( * Nl3arg11 lam1n3 ) ( * Nl3arg12 lam1n4 ) ( * Nl3arg13 lam1n5 ) ( - ( + ( + ( + 0 ( * Nl3arg11 1 ) ) ( * Nl3arg21 1 ) ) ( * Nl3arg31 1 ) ) ) ) 0 ) ( = ( + ( * 1 lam1n0 ) ( * 1 lam1n2 ) ( * Nl3arg21 lam1n3 ) ( * Nl3arg22 lam1n4 ) ( * Nl3arg23 lam1n5 ) ) 0 ) ( = ( + ( * ( - 1 ) lam1n2 ) ( * Nl3arg31 lam1n3 ) ( * Nl3arg32 lam1n4 ) ( * Nl3arg33 lam1n5 ) ) 0 ) ) ))
(assert ( or ( and ( >= lam0n0 0 ) ( >= lam0n1 0 ) ( >= lam0n3 0 ) ( >= lam0n4 0 ) ( >= lam0n5 0 ) ( > ( + ( * ( - 5 ) lam0n0 ) ( * ( - 8 ) lam0n1 ) ( * Nl3CT1 lam0n3 ) ( * Nl3CT2 lam0n4 ) ( * Nl3CT3 lam0n5 ) ( - 1 ) ) 0 ) ( = ( + ( * 1 lam0n1 ) ( * Nl3arg11 lam0n3 ) ( * Nl3arg12 lam0n4 ) ( * Nl3arg13 lam0n5 ) ) 0 ) ( = ( + ( * 1 lam0n0 ) ( * 1 lam0n2 ) ( * Nl3arg21 lam0n3 ) ( * Nl3arg22 lam0n4 ) ( * Nl3arg23 lam0n5 ) ) 0 ) ( = ( + ( * ( - 1 ) lam0n2 ) ( * Nl3arg31 lam0n3 ) ( * Nl3arg32 lam0n4 ) ( * Nl3arg33 lam0n5 ) ) 0 ) ) ( and ( >= lam2n0 0 ) ( >= lam2n1 0 ) ( >= lam2n3 0 ) ( >= lam2n4 0 ) ( >= lam2n5 0 ) ( > ( + ( * ( - 5 ) lam2n0 ) ( * ( - 8 ) lam2n1 ) ( * Nl3CT1 lam2n3 ) ( * Nl3CT2 lam2n4 ) ( * Nl3CT3 lam2n5 ) ( - 1 ( + ( + ( + Nl3CT2 ( * Nl3arg12 1 ) ) ( * Nl3arg22 1 ) ) ( * Nl3arg32 1 ) ) ) ) 0 ) ( = ( + ( * 1 lam2n1 ) ( * Nl3arg11 lam2n3 ) ( * Nl3arg12 lam2n4 ) ( * Nl3arg13 lam2n5 ) ( - ( + ( + ( + 0 ( * Nl3arg12 1 ) ) ( * Nl3arg22 1 ) ) ( * Nl3arg32 1 ) ) ) ) 0 ) ( = ( + ( * 1 lam2n0 ) ( * 1 lam2n2 ) ( * Nl3arg21 lam2n3 ) ( * Nl3arg22 lam2n4 ) ( * Nl3arg23 lam2n5 ) ) 0 ) ( = ( + ( * ( - 1 ) lam2n2 ) ( * Nl3arg31 lam2n3 ) ( * Nl3arg32 lam2n4 ) ( * Nl3arg33 lam2n5 ) ) 0 ) ) ))
(assert ( or ( and ( >= lam0n0 0 ) ( >= lam0n1 0 ) ( >= lam0n3 0 ) ( >= lam0n4 0 ) ( >= lam0n5 0 ) ( > ( + ( * ( - 5 ) lam0n0 ) ( * ( - 8 ) lam0n1 ) ( * Nl3CT1 lam0n3 ) ( * Nl3CT2 lam0n4 ) ( * Nl3CT3 lam0n5 ) ( - 1 ) ) 0 ) ( = ( + ( * 1 lam0n1 ) ( * Nl3arg11 lam0n3 ) ( * Nl3arg12 lam0n4 ) ( * Nl3arg13 lam0n5 ) ) 0 ) ( = ( + ( * 1 lam0n0 ) ( * 1 lam0n2 ) ( * Nl3arg21 lam0n3 ) ( * Nl3arg22 lam0n4 ) ( * Nl3arg23 lam0n5 ) ) 0 ) ( = ( + ( * ( - 1 ) lam0n2 ) ( * Nl3arg31 lam0n3 ) ( * Nl3arg32 lam0n4 ) ( * Nl3arg33 lam0n5 ) ) 0 ) ) ( and ( >= lam3n0 0 ) ( >= lam3n1 0 ) ( >= lam3n3 0 ) ( >= lam3n4 0 ) ( >= lam3n5 0 ) ( > ( + ( * ( - 5 ) lam3n0 ) ( * ( - 8 ) lam3n1 ) ( * Nl3CT1 lam3n3 ) ( * Nl3CT2 lam3n4 ) ( * Nl3CT3 lam3n5 ) ( - 1 ( + ( + ( + Nl3CT3 ( * Nl3arg13 1 ) ) ( * Nl3arg23 1 ) ) ( * Nl3arg33 1 ) ) ) ) 0 ) ( = ( + ( * 1 lam3n1 ) ( * Nl3arg11 lam3n3 ) ( * Nl3arg12 lam3n4 ) ( * Nl3arg13 lam3n5 ) ( - ( + ( + ( + 0 ( * Nl3arg13 1 ) ) ( * Nl3arg23 1 ) ) ( * Nl3arg33 1 ) ) ) ) 0 ) ( = ( + ( * 1 lam3n0 ) ( * 1 lam3n2 ) ( * Nl3arg21 lam3n3 ) ( * Nl3arg22 lam3n4 ) ( * Nl3arg23 lam3n5 ) ) 0 ) ( = ( + ( * ( - 1 ) lam3n2 ) ( * Nl3arg31 lam3n3 ) ( * Nl3arg32 lam3n4 ) ( * Nl3arg33 lam3n5 ) ) 0 ) ) ))
(assert ( or ( and ( >= lam4n0 0 ) ( >= lam4n2 0 ) ( >= lam4n3 0 ) ( >= lam4n4 0 ) ( > ( + ( * 6 lam4n0 ) ( * Nl3CT1 lam4n2 ) ( * Nl3CT2 lam4n3 ) ( * Nl3CT3 lam4n4 ) ( - 1 ) ) 0 ) ( = ( + ( * Nl3arg11 lam4n2 ) ( * Nl3arg12 lam4n3 ) ( * Nl3arg13 lam4n4 ) ) 0 ) ( = ( + ( * ( - 1 ) lam4n0 ) ( * 1 lam4n1 ) ( * Nl3arg21 lam4n2 ) ( * Nl3arg22 lam4n3 ) ( * Nl3arg23 lam4n4 ) ) 0 ) ( = ( + ( * ( - 1 ) lam4n1 ) ( * Nl3arg31 lam4n2 ) ( * Nl3arg32 lam4n3 ) ( * Nl3arg33 lam4n4 ) ) 0 ) ) ( and ( >= lam5n0 0 ) ( >= lam5n2 0 ) ( >= lam5n3 0 ) ( >= lam5n4 0 ) ( > ( + ( * 6 lam5n0 ) ( * Nl3CT1 lam5n2 ) ( * Nl3CT2 lam5n3 ) ( * Nl3CT3 lam5n4 ) ( - 1 ( + ( + Nl3CT1 ( * Nl3arg21 1 ) ) ( * Nl3arg31 1 ) ) ) ) 0 ) ( = ( + ( * Nl3arg11 lam5n2 ) ( * Nl3arg12 lam5n3 ) ( * Nl3arg13 lam5n4 ) ( - ( + 0 Nl3arg11 ) ) ) 0 ) ( = ( + ( * ( - 1 ) lam5n0 ) ( * 1 lam5n1 ) ( * Nl3arg21 lam5n2 ) ( * Nl3arg22 lam5n3 ) ( * Nl3arg23 lam5n4 ) ( - ( + ( + 0 ( * Nl3arg21 1 ) ) ( * Nl3arg31 1 ) ) ) ) 0 ) ( = ( + ( * ( - 1 ) lam5n1 ) ( * Nl3arg31 lam5n2 ) ( * Nl3arg32 lam5n3 ) ( * Nl3arg33 lam5n4 ) ) 0 ) ) ))
(assert ( or ( and ( >= lam4n0 0 ) ( >= lam4n2 0 ) ( >= lam4n3 0 ) ( >= lam4n4 0 ) ( > ( + ( * 6 lam4n0 ) ( * Nl3CT1 lam4n2 ) ( * Nl3CT2 lam4n3 ) ( * Nl3CT3 lam4n4 ) ( - 1 ) ) 0 ) ( = ( + ( * Nl3arg11 lam4n2 ) ( * Nl3arg12 lam4n3 ) ( * Nl3arg13 lam4n4 ) ) 0 ) ( = ( + ( * ( - 1 ) lam4n0 ) ( * 1 lam4n1 ) ( * Nl3arg21 lam4n2 ) ( * Nl3arg22 lam4n3 ) ( * Nl3arg23 lam4n4 ) ) 0 ) ( = ( + ( * ( - 1 ) lam4n1 ) ( * Nl3arg31 lam4n2 ) ( * Nl3arg32 lam4n3 ) ( * Nl3arg33 lam4n4 ) ) 0 ) ) ( and ( >= lam6n0 0 ) ( >= lam6n2 0 ) ( >= lam6n3 0 ) ( >= lam6n4 0 ) ( > ( + ( * 6 lam6n0 ) ( * Nl3CT1 lam6n2 ) ( * Nl3CT2 lam6n3 ) ( * Nl3CT3 lam6n4 ) ( - 1 ( + ( + Nl3CT2 ( * Nl3arg22 1 ) ) ( * Nl3arg32 1 ) ) ) ) 0 ) ( = ( + ( * Nl3arg11 lam6n2 ) ( * Nl3arg12 lam6n3 ) ( * Nl3arg13 lam6n4 ) ( - ( + 0 Nl3arg12 ) ) ) 0 ) ( = ( + ( * ( - 1 ) lam6n0 ) ( * 1 lam6n1 ) ( * Nl3arg21 lam6n2 ) ( * Nl3arg22 lam6n3 ) ( * Nl3arg23 lam6n4 ) ( - ( + ( + 0 ( * Nl3arg22 1 ) ) ( * Nl3arg32 1 ) ) ) ) 0 ) ( = ( + ( * ( - 1 ) lam6n1 ) ( * Nl3arg31 lam6n2 ) ( * Nl3arg32 lam6n3 ) ( * Nl3arg33 lam6n4 ) ) 0 ) ) ))
(assert ( or ( and ( >= lam4n0 0 ) ( >= lam4n2 0 ) ( >= lam4n3 0 ) ( >= lam4n4 0 ) ( > ( + ( * 6 lam4n0 ) ( * Nl3CT1 lam4n2 ) ( * Nl3CT2 lam4n3 ) ( * Nl3CT3 lam4n4 ) ( - 1 ) ) 0 ) ( = ( + ( * Nl3arg11 lam4n2 ) ( * Nl3arg12 lam4n3 ) ( * Nl3arg13 lam4n4 ) ) 0 ) ( = ( + ( * ( - 1 ) lam4n0 ) ( * 1 lam4n1 ) ( * Nl3arg21 lam4n2 ) ( * Nl3arg22 lam4n3 ) ( * Nl3arg23 lam4n4 ) ) 0 ) ( = ( + ( * ( - 1 ) lam4n1 ) ( * Nl3arg31 lam4n2 ) ( * Nl3arg32 lam4n3 ) ( * Nl3arg33 lam4n4 ) ) 0 ) ) ( and ( >= lam7n0 0 ) ( >= lam7n2 0 ) ( >= lam7n3 0 ) ( >= lam7n4 0 ) ( > ( + ( * 6 lam7n0 ) ( * Nl3CT1 lam7n2 ) ( * Nl3CT2 lam7n3 ) ( * Nl3CT3 lam7n4 ) ( - 1 ( + ( + Nl3CT3 ( * Nl3arg23 1 ) ) ( * Nl3arg33 1 ) ) ) ) 0 ) ( = ( + ( * Nl3arg11 lam7n2 ) ( * Nl3arg12 lam7n3 ) ( * Nl3arg13 lam7n4 ) ( - ( + 0 Nl3arg13 ) ) ) 0 ) ( = ( + ( * ( - 1 ) lam7n0 ) ( * 1 lam7n1 ) ( * Nl3arg21 lam7n2 ) ( * Nl3arg22 lam7n3 ) ( * Nl3arg23 lam7n4 ) ( - ( + ( + 0 ( * Nl3arg23 1 ) ) ( * Nl3arg33 1 ) ) ) ) 0 ) ( = ( + ( * ( - 1 ) lam7n1 ) ( * Nl3arg31 lam7n2 ) ( * Nl3arg32 lam7n3 ) ( * Nl3arg33 lam7n4 ) ) 0 ) ) ))
(assert ( and ( <= ( + Nl3CT1 ( * Nl3arg11 FV_arg1_2 ) ( * Nl3arg21 FV_arg2_2 ) ( * Nl3arg31 FV_arg3_2 ) ) 0 ) ( <= ( + Nl3CT2 ( * Nl3arg12 FV_arg1_2 ) ( * Nl3arg22 FV_arg2_2 ) ( * Nl3arg32 FV_arg3_2 ) ) 0 ) ( <= ( + Nl3CT3 ( * Nl3arg13 FV_arg1_2 ) ( * Nl3arg23 FV_arg2_2 ) ( * Nl3arg33 FV_arg3_2 ) ) 0 ) ))
(assert ( or ( and ( >= lam11n0 0 ) ( >= lam11n1 0 ) ( >= lam11n2 0 ) ( >= lam11n3 0 ) ( >= lam11n4 0 ) ( > ( + ( * 1 lam11n0 ) ( * 6 lam11n1 ) ( * Nl3CT1 lam11n2 ) ( * Nl3CT2 lam11n3 ) ( * Nl3CT3 lam11n4 ) ( - 1 ) ) 0 ) ( = ( + ( * Nl3arg11 lam11n2 ) ( * Nl3arg12 lam11n3 ) ( * Nl3arg13 lam11n4 ) ) 0 ) ( = ( + ( * ( - 1 ) lam11n0 ) ( * ( - 1 ) lam11n1 ) ( * Nl3arg21 lam11n2 ) ( * Nl3arg22 lam11n3 ) ( * Nl3arg23 lam11n4 ) ) 0 ) ( = ( + ( * 1 lam11n0 ) ( * Nl3arg31 lam11n2 ) ( * Nl3arg32 lam11n3 ) ( * Nl3arg33 lam11n4 ) ) 0 ) ) ( and ( >= lam12n0 0 ) ( >= lam12n1 0 ) ( >= lam12n2 0 ) ( >= lam12n3 0 ) ( >= lam12n4 0 ) ( > ( + ( * 1 lam12n0 ) ( * 6 lam12n1 ) ( * Nl3CT1 lam12n2 ) ( * Nl3CT2 lam12n3 ) ( * Nl3CT3 lam12n4 ) ( - 1 ) ) 0 ) ( = ( + ( * Nl3arg11 lam12n2 ) ( * Nl3arg12 lam12n3 ) ( * Nl3arg13 lam12n4 ) ) 0 ) ( = ( + ( * 1 lam12n0 ) ( * ( - 1 ) lam12n1 ) ( * Nl3arg21 lam12n2 ) ( * Nl3arg22 lam12n3 ) ( * Nl3arg23 lam12n4 ) ) 0 ) ( = ( + ( * ( - 1 ) lam12n0 ) ( * Nl3arg31 lam12n2 ) ( * Nl3arg32 lam12n3 ) ( * Nl3arg33 lam12n4 ) ) 0 ) ) ( and ( >= lam13n0 0 ) ( >= lam13n1 0 ) ( >= lam13n2 0 ) ( >= lam13n3 0 ) ( >= lam13n4 0 ) ( >= lam13n5 0 ) ( > ( + ( * 1 lam13n0 ) ( * 9 lam13n1 ) ( * ( - 5 ) lam13n2 ) ( * Nl3CT1 lam13n3 ) ( * Nl3CT2 lam13n4 ) ( * Nl3CT3 lam13n5 ) ( - 1 ) ) 0 ) ( = ( + ( * ( - 1 ) lam13n1 ) ( * Nl3arg11 lam13n3 ) ( * Nl3arg12 lam13n4 ) ( * Nl3arg13 lam13n5 ) ) 0 ) ( = ( + ( * ( - 1 ) lam13n0 ) ( * 1 lam13n2 ) ( * Nl3arg21 lam13n3 ) ( * Nl3arg22 lam13n4 ) ( * Nl3arg23 lam13n5 ) ) 0 ) ( = ( + ( * 1 lam13n0 ) ( * Nl3arg31 lam13n3 ) ( * Nl3arg32 lam13n4 ) ( * Nl3arg33 lam13n5 ) ) 0 ) ) ( and ( >= lam14n0 0 ) ( >= lam14n1 0 ) ( >= lam14n2 0 ) ( >= lam14n3 0 ) ( >= lam14n4 0 ) ( >= lam14n5 0 ) ( > ( + ( * 9 lam14n1 ) ( * ( - 5 ) lam14n2 ) ( * Nl3CT1 lam14n3 ) ( * Nl3CT2 lam14n4 ) ( * Nl3CT3 lam14n5 ) ( - 1 ) ) 0 ) ( = ( + ( * ( - 1 ) lam14n1 ) ( * Nl3arg11 lam14n3 ) ( * Nl3arg12 lam14n4 ) ( * Nl3arg13 lam14n5 ) ) 0 ) ( = ( + ( * 1 lam14n0 ) ( * 1 lam14n2 ) ( * Nl3arg21 lam14n3 ) ( * Nl3arg22 lam14n4 ) ( * Nl3arg23 lam14n5 ) ) 0 ) ( = ( + ( * ( - 1 ) lam14n0 ) ( * Nl3arg31 lam14n3 ) ( * Nl3arg32 lam14n4 ) ( * Nl3arg33 lam14n5 ) ) 0 ) ) ( and ( >= lam15n0 0 ) ( >= lam15n1 0 ) ( >= lam15n2 0 ) ( >= lam15n3 0 ) ( >= lam15n4 0 ) ( >= lam15n5 0 ) ( > ( + ( * 1 lam15n0 ) ( * ( - 5 ) lam15n1 ) ( * ( - 8 ) lam15n2 ) ( * Nl3CT1 lam15n3 ) ( * Nl3CT2 lam15n4 ) ( * Nl3CT3 lam15n5 ) ( - 1 ) ) 0 ) ( = ( + ( * 1 lam15n2 ) ( * Nl3arg11 lam15n3 ) ( * Nl3arg12 lam15n4 ) ( * Nl3arg13 lam15n5 ) ) 0 ) ( = ( + ( * ( - 1 ) lam15n0 ) ( * 1 lam15n1 ) ( * Nl3arg21 lam15n3 ) ( * Nl3arg22 lam15n4 ) ( * Nl3arg23 lam15n5 ) ) 0 ) ( = ( + ( * 1 lam15n0 ) ( * Nl3arg31 lam15n3 ) ( * Nl3arg32 lam15n4 ) ( * Nl3arg33 lam15n5 ) ) 0 ) ) ( and ( >= lam16n0 0 ) ( >= lam16n1 0 ) ( >= lam16n2 0 ) ( >= lam16n3 0 ) ( >= lam16n4 0 ) ( >= lam16n5 0 ) ( > ( + ( * 1 lam16n0 ) ( * ( - 5 ) lam16n1 ) ( * ( - 8 ) lam16n2 ) ( * Nl3CT1 lam16n3 ) ( * Nl3CT2 lam16n4 ) ( * Nl3CT3 lam16n5 ) ( - 1 ) ) 0 ) ( = ( + ( * 1 lam16n2 ) ( * Nl3arg11 lam16n3 ) ( * Nl3arg12 lam16n4 ) ( * Nl3arg13 lam16n5 ) ) 0 ) ( = ( + ( * 1 lam16n0 ) ( * 1 lam16n1 ) ( * Nl3arg21 lam16n3 ) ( * Nl3arg22 lam16n4 ) ( * Nl3arg23 lam16n5 ) ) 0 ) ( = ( + ( * ( - 1 ) lam16n0 ) ( * Nl3arg31 lam16n3 ) ( * Nl3arg32 lam16n4 ) ( * Nl3arg33 lam16n5 ) ) 0 ) ) ))
(assert ( and ( and ( <= ( + Nl3CT1 ( * Nl3arg21 FV_arg2_3 ) ( * Nl3arg11 FV_arg1_3 ) ( * Nl3arg31 FV_arg3_3 ) ) 0 ) ( <= ( + Nl3CT2 ( * Nl3arg22 FV_arg2_3 ) ( * Nl3arg12 FV_arg1_3 ) ( * Nl3arg32 FV_arg3_3 ) ) 0 ) ( <= ( + Nl3CT3 ( * Nl3arg23 FV_arg2_3 ) ( * Nl3arg13 FV_arg1_3 ) ( * Nl3arg33 FV_arg3_3 ) ) 0 ) ) ( or ( and ( <= ( + ( - 5 ) FV_arg2_3 ) 0 ) ( <= ( + ( - 8 ) FV_arg1_3 ) 0 ) ( = ( + FV_arg2_3 ( * ( - 1 ) FV_arg3_3 ) ) 0 ) ) ( and ( <= ( + 6 ( * ( - 1 ) FV_arg2_3 ) ) 0 ) ( = ( + FV_arg2_3 ( * ( - 1 ) FV_arg3_3 ) ) 0 ) ) ) ))
(check-sat)
(exit)
